experiments/sat_smt/run/sat-r/results/unnamed.res
solved=true
solvingTime=505.17901611328125
nActions=16