experiments/sat_smt/run/sat-r/results/unnamed.out
Timesteps: 1
s UNSATISFIABLE
real 0.27
user 0.03
sys 0.00
Timesteps: 2
s UNSATISFIABLE
real 0.21
user 0.06
sys 0.00
Timesteps: 3
s UNSATISFIABLE
real 0.34
user 0.11
sys 0.00
Timesteps: 4
s UNSATISFIABLE
real 0.41
user 0.27
sys 0.01
Timesteps: 5
s UNSATISFIABLE
real 0.65
user 0.47
sys 0.02
Timesteps: 6
s UNSATISFIABLE
real 0.87
user 0.63
sys 0.02
Timesteps: 7
s UNSATISFIABLE
real 1.78
user 1.51
sys 0.02
Timesteps: 8
s UNSATISFIABLE
real 3.60
user 3.28
sys 0.04
Timesteps: 9
s UNSATISFIABLE
real 11.48
user 10.64
sys 0.04
Timesteps: 10
s UNSATISFIABLE
real 24.52
user 23.48
sys 0.07
Timesteps: 11
s UNSATISFIABLE
real 30.79
user 29.61
sys 0.07
Timesteps: 12
s UNSATISFIABLE
real 38.58
user 37.28
sys 0.11
Timesteps: 13
s UNSATISFIABLE
real 59.42
user 57.92
sys 0.12
Timesteps: 14
s UNSATISFIABLE
real 66.86
user 65.26
sys 0.12
Timesteps: 15
s UNSATISFIABLE
real 205.71
user 203.32
sys 0.22
Timesteps: 16
s SATISFIABLE
real 66.19
user 65.20
sys 0.13
